Minimize
  z
Subject To
 c_0: x16 + x63 + x93 + x131 + x151 >= 1
 c_1: x31 + x56 + x81 + x122 + x163 >= 1
 c_2: x2 + x39 + x83 + x105 + x169 >= 1
 c_3: x4 + x41 + x85 + x107 + x168 >= 1
 c_4: x10 + x49 + x77 + x114 + x147 >= 1
 c_5: x31 + x56 + x80 + x123 + x164 >= 1
 c_6: x30 + x55 + x81 + x122 + x163 >= 1
 c_7: x8 + x46 + x101 + x111 + x144 >= 1
 c_8: x24 + x60 + x90 + x110 + x161 >= 1
 c_9: x29 + x58 + x88 + x121 + x167 >= 1
 c_10: x22 + x43 + x75 + x110 + x159 >= 1
 c_11: x24 + x60 + x90 + x109 + x160 >= 1
 c_12: x3 + x40 + x84 + x106 + x171 >= 1
 c_13: x14 + x61 + x91 + x135 + x149 >= 1
 c_14: x27 + x59 + x89 + x119 + x162 >= 1
 c_15: x14 + x61 + x91 + x133 + x149 >= 1
 c_16: x4 + x41 + x85 + x107 + x168 >= 1
 c_17: x20 + x67 + x97 + x127 + x155 >= 1
 c_18: x27 + x59 + x89 + x119 + x161 >= 1
 c_19: x13 + x45 + x74 + x112 + x140 >= 1
 c_20: x18 + x65 + x95 + x130 + x153 >= 1
 c_21: x32 + x51 + x99 + x124 + x158 >= 1
 c_22: x17 + x64 + x94 + x130 + x152 >= 1
 c_23: x23 + x43 + x75 + x109 + x160 >= 1
 c_24: x27 + x57 + x87 + x119 + x166 >= 1
 c_25: x18 + x65 + x95 + x130 + x153 >= 1
 c_26: x22 + x43 + x75 + x110 + x159 >= 1
 c_27: x17 + x64 + x94 + x130 + x152 >= 1
 c_28: x4 + x41 + x84 + x107 + x168 >= 1
 c_29: x12 + x50 + x99 + x116 + x157 >= 1
 c_30: x21 + x68 + x98 + x127 + x156 >= 1
 c_31: x11 + x47 + x79 + x115 + x145 >= 1
 c_32: x12 + x49 + x79 + x126 + x147 >= 1
 c_33: x28 + x58 + x87 + x120 + x166 >= 1
 c_34: x32 + x57 + x102 + x124 + x165 >= 1
 c_35: x32 + x57 + x102 + x124 + x165 >= 1
 c_36: x1 + x38 + x82 + x104 + x168 >= 1
 c_37: x22 + x43 + x75 + x110 + x159 >= 1
 c_38: x1 + x38 + x82 + x104 + x170 >= 1
 c_39: x3 + x40 + x84 + x106 + x171 >= 1
 c_40: x3 + x40 + x84 + x106 + x170 >= 1
 c_41: x3 + x40 + x83 + x106 + x170 >= 1
 c_42: x19 + x66 + x96 + x128 + x154 >= 1
 c_43: x13 + x50 + x78 + x126 + x148 >= 1
 c_44: x15 + x62 + x92 + x133 + x150 >= 1
 c_45: x19 + x66 + x96 + x129 + x154 >= 1
 c_46: x1 + x38 + x82 + x104 + x169 >= 1
 c_47: x20 + x67 + x97 + x129 + x155 >= 1
 c_48: x23 + x61 + x90 + x109 + x160 >= 1
 c_49: x29 + x54 + x86 + x121 + x167 >= 1
 c_50: x21 + x68 + x98 + x127 + x156 >= 1
 c_51: x17 + x64 + x93 + x131 + x151 >= 1
 c_52: x26 + x54 + x87 + x118 + x142 >= 1
 c_53: x26 + x58 + x88 + x118 + x162 >= 1
 c_54: x19 + x66 + x95 + x128 + x153 >= 1
 c_55: x31 + x56 + x80 + x123 + x164 >= 1
 c_56: x7 + x36 + x72 + x103 + x138 >= 1
 c_57: x4 + x41 + x85 + x107 + x171 >= 1
 c_58: x4 + x41 + x84 + x107 + x171 >= 1
 c_59: x18 + x65 + x94 + x130 + x152 >= 1
 c_60: x32 + x57 + x102 + x124 + x165 >= 1
 c_61: x21 + x68 + x97 + x127 + x155 >= 1
 c_62: x29 + x54 + x86 + x121 + x167 >= 1
 c_63: x11 + x47 + x79 + x115 + x145 >= 1
 c_64: x11 + x48 + x77 + x115 + x146 >= 1
 c_65: x16 + x63 + x93 + x132 + x151 >= 1
 c_66: x28 + x58 + x88 + x120 + x166 >= 1
 c_67: x23 + x60 + x90 + x109 + x160 >= 1
 c_68: x32 + x57 + x102 + x124 + x165 >= 1
 c_69: x22 + x43 + x75 + x110 + x159 >= 1
 c_70: x2 + x39 + x82 + x105 + x169 >= 1
 c_71: x19 + x66 + x96 + x128 + x154 >= 1
 c_72: x27 + x59 + x89 + x119 + x161 >= 1
 c_73: x7 + x36 + x72 + x103 + x138 >= 1
 c_74: x9 + x47 + x76 + x111 + x145 >= 1
 c_75: x6 + x44 + x73 + x136 + x139 >= 1
 c_76: x15 + x62 + x92 + x132 + x150 >= 1
 c_77: x18 + x65 + x95 + x112 + x153 >= 1
 c_78: x25 + x53 + x101 + x117 + x144 >= 1
 c_79: x25 + x53 + x101 + x117 + x144 >= 1
 c_80: x25 + x53 + x101 + x117 + x144 >= 1
 c_81: x32 + x57 + x102 + x123 + x164 >= 1
 c_82: x2 + x39 + x83 + x105 + x170 >= 1
 c_83: x3 + x40 + x83 + x106 + x170 >= 1
 c_84: x2 + x39 + x83 + x105 + x170 >= 1
 c_85: x11 + x48 + x77 + x115 + x146 >= 1
 c_86: x9 + x49 + x78 + x114 + x147 >= 1
 c_87: x29 + x54 + x86 + x121 + x167 >= 1
 c_88: x17 + x64 + x94 + x131 + x152 >= 1
 c_89: x17 + x64 + x94 + x131 + x152 >= 1
 c_90: x33 + x52 + x100 + x126 + x158 >= 1
 c_91: x16 + x63 + x93 + x131 + x151 >= 1
 c_92: x30 + x55 + x85 + x122 + x168 >= 1
 c_93: x28 + x58 + x88 + x120 + x166 >= 1
 c_94: x26 + x59 + x88 + x118 + x162 >= 1
 c_95: x18 + x65 + x95 + x130 + x153 >= 1
 c_96: x33 + x51 + x99 + x125 + x158 >= 1
 c_97: x33 + x46 + x76 + x116 + x143 >= 1
 c_98: x27 + x59 + x89 + x119 + x162 >= 1
 c_99: x22 + x45 + x78 + x113 + x148 >= 1
 c_100: x14 + x61 + x91 + x133 + x149 >= 1
 c_101: x10 + x49 + x77 + x114 + x147 >= 1
 c_102: x5 + x35 + x69 + x135 + x140 >= 1
 c_103: x14 + x62 + x91 + x133 + x149 >= 1
 c_104: x13 + x50 + x78 + x126 + x148 >= 1
 c_105: x29 + x54 + x86 + x121 + x167 >= 1
 c_106: x18 + x65 + x95 + x112 + x153 >= 1
 c_107: x23 + x60 + x89 + x108 + x161 >= 1
 c_108: x26 + x53 + x87 + x118 + x142 >= 1
 c_109: x21 + x68 + x98 + x128 + x156 >= 1
 c_110: x25 + x52 + x101 + x117 + x143 >= 1
 c_111: x33 + x51 + x100 + x125 + x158 >= 1
 c_112: x26 + x54 + x87 + x118 + x142 >= 1
 c_113: x20 + x67 + x97 + x129 + x155 >= 1
 c_114: x30 + x55 + x81 + x122 + x163 >= 1
 c_115: x2 + x39 + x82 + x105 + x169 >= 1
 c_116: x1 + x38 + x71 + x104 + x169 >= 1
 c_117: x10 + x48 + x77 + x114 + x146 >= 1
 c_118: x30 + x55 + x81 + x122 + x163 >= 1
 c_119: x19 + x66 + x96 + x128 + x154 >= 1
 c_120: x25 + x52 + x100 + x117 + x143 >= 1
 c_121: x20 + x67 + x96 + x129 + x154 >= 1
 c_122: x9 + x36 + x72 + x111 + x138 >= 1
 c_123: x33 + x52 + x100 + x126 + x158 >= 1
 c_124: x14 + x61 + x91 + x135 + x149 >= 1
 c_125: x8 + x37 + x80 + x103 + x142 >= 1
 c_126: x5 + x42 + x71 + x108 + x142 >= 1
 c_127: x6 + x44 + x73 + x136 + x139 >= 1
 c_128: x24 + x52 + x100 + x116 + x159 >= 1
 c_129: x8 + x46 + x102 + x111 + x144 >= 1
 c_130: x30 + x35 + x71 + x134 + x163 >= 1
 c_131: x11 + x47 + x79 + x115 + x145 >= 1
 c_132: x16 + x63 + x93 + x132 + x151 >= 1
 c_133: x10 + x48 + x77 + x114 + x146 >= 1
 c_134: x0 + x35 + x69 + x135 + x141 >= 1
 c_135: x22 + x45 + x78 + x113 + x148 >= 1
 c_136: x1 + x55 + x81 + x134 + x141 >= 1
 c_137: x5 + x35 + x69 + x135 + x140 >= 1
 c_138: x33 + x51 + x99 + x125 + x158 >= 1
 c_139: x24 + x60 + x90 + x109 + x160 >= 1
 c_140: x23 + x43 + x75 + x109 + x160 >= 1
 c_141: x20 + x67 + x97 + x129 + x155 >= 1
 c_142: x1 + x38 + x71 + x104 + x163 >= 1
 c_143: x6 + x35 + x69 + x112 + x140 >= 1
 c_144: x15 + x62 + x92 + x132 + x150 >= 1
 c_145: x15 + x62 + x92 + x132 + x150 >= 1
 c_146: x20 + x68 + x97 + x127 + x155 >= 1
 c_147: x17 + x64 + x94 + x131 + x152 >= 1
 c_148: x29 + x58 + x88 + x121 + x166 >= 1
 c_149: x8 + x46 + x76 + x111 + x144 >= 1
 c_150: x9 + x37 + x73 + x134 + x139 >= 1
 c_151: x21 + x34 + x98 + x128 + x156 >= 1
 c_152: x21 + x68 + x98 + x127 + x156 >= 1
 c_153: x13 + x50 + x79 + x126 + x148 >= 1
 c_154: x15 + x63 + x92 + x133 + x150 >= 1
 c_155: x12 + x50 + x98 + x116 + x156 >= 1
 c_156: x31 + x56 + x80 + x123 + x164 >= 1
 c_157: x31 + x56 + x80 + x123 + x164 >= 1
 c_158: x30 + x55 + x85 + x122 + x167 >= 1
 c_159: x7 + x36 + x72 + x112 + x138 >= 1
 c_160: x11 + x47 + x79 + x115 + x145 >= 1
 c_161: x0 + x46 + x76 + x116 + x143 >= 1
 c_162: x19 + x67 + x96 + x129 + x154 >= 1
 c_163: x23 + x59 + x89 + x108 + x161 >= 1
 c_164: x24 + x60 + x90 + x110 + x161 >= 1
 c_165: x8 + x37 + x70 + x103 + x143 >= 1
 c_166: x26 + x53 + x87 + x118 + x142 >= 1
 c_167: x6 + x44 + x73 + x136 + x139 >= 1
 c_168: x24 + x52 + x100 + x116 + x159 >= 1
 c_169: x6 + x44 + x73 + x136 + x139 >= 1
 c_170: x25 + x53 + x101 + x117 + x143 >= 1
 c_171: x31 + x56 + x80 + x123 + x164 >= 1
 c_172: x10 + x48 + x78 + x114 + x146 >= 1
 c_173: x9 + x37 + x72 + x111 + x138 >= 1
 c_174: x9 + x37 + x69 + x134 + x137 >= 1
 c_175: x5 + x42 + x71 + x108 + x141 >= 1
 c_176: x13 + x45 + x74 + x112 + x140 >= 1
 z_0: 174.761075 x0 - z <= 0
 z_1: 476.55025 x1 - z <= 0
 z_2: 413.9629750000001 x2 - z <= 0
 z_3: 409.874 x3 - z <= 0
 z_4: 414.9941250000001 x4 - z <= 0
 z_5: 354.8753 x5 - z <= 0
 z_6: 414.56705 x6 - z <= 0
 z_7: 252.28995 x7 - z <= 0
 z_8: 388.857675 x8 - z <= 0
 z_9: 468.6465 x9 - z <= 0
 z_10: 383.181225 x10 - z <= 0
 z_11: 454.9065499999999 x11 - z <= 0
 z_12: 214.437075 x12 - z <= 0
 z_13: 391.7862 x13 - z <= 0
 z_14: 407.031925 x14 - z <= 0
 z_15: 443.98425 x15 - z <= 0
 z_16: 342.9073 x16 - z <= 0
 z_17: 474.0984000000001 x17 - z <= 0
 z_18: 467.839675 x18 - z <= 0
 z_19: 463.884375 x19 - z <= 0
 z_20: 461.5613500000001 x20 - z <= 0
 z_21: 456.3513 x21 - z <= 0
 z_22: 473.1361250000001 x22 - z <= 0
 z_23: 479.1364 x23 - z <= 0
 z_24: 420.26725 x24 - z <= 0
 z_25: 455.11465 x25 - z <= 0
 z_26: 472.19225 x26 - z <= 0
 z_27: 391.285825 x27 - z <= 0
 z_28: 251.53915 x28 - z <= 0
 z_29: 471.2102 x29 - z <= 0
 z_30: 467.8836 x30 - z <= 0
 z_31: 456.22175 x31 - z <= 0
 z_32: 451.74395 x32 - z <= 0
 z_33: 454.040675 x33 - z <= 0
 z_34: 81.32984999999999 x34 - z <= 0
 z_35: 448.40835 x35 - z <= 0
 z_36: 331.114875 x36 - z <= 0
 z_37: 400.08705 x37 - z <= 0
 z_38: 425.480275 x38 - z <= 0
 z_39: 413.9629750000001 x39 - z <= 0
 z_40: 409.874 x40 - z <= 0
 z_41: 414.9941250000001 x41 - z <= 0
 z_42: 173.457925 x42 - z <= 0
 z_43: 476.6106 x43 - z <= 0
 z_44: 338.27895 x44 - z <= 0
 z_45: 317.9308 x45 - z <= 0
 z_46: 387.640275 x46 - z <= 0
 z_47: 377.516375 x47 - z <= 0
 z_48: 384.3077 x48 - z <= 0
 z_49: 304.022575 x49 - z <= 0
 z_50: 367.3487500000001 x50 - z <= 0
 z_51: 302.582525 x51 - z <= 0
 z_52: 412.219775 x52 - z <= 0
 z_53: 461.267075 x53 - z <= 0
 z_54: 475.74005 x54 - z <= 0
 z_55: 443.596725 x55 - z <= 0
 z_56: 456.22175 x56 - z <= 0
 z_57: 455.3353 x57 - z <= 0
 z_58: 478.211675 x58 - z <= 0
 z_59: 469.8029 x59 - z <= 0
 z_60: 473.5228 x60 - z <= 0
 z_61: 430.368975 x61 - z <= 0
 z_62: 414.067225 x62 - z <= 0
 z_63: 433.203275 x63 - z <= 0
 z_64: 474.0984000000001 x64 - z <= 0
 z_65: 467.839675 x65 - z <= 0
 z_66: 389.040975 x66 - z <= 0
 z_67: 461.862675 x67 - z <= 0
 z_68: 455.568525 x68 - z <= 0
 z_69: 429.1748249999999 x69 - z <= 0
 z_70: 78.4118 x70 - z <= 0
 z_71: 421.58055 x71 - z <= 0
 z_72: 405.48355 x72 - z <= 0
 z_73: 417.01485 x73 - z <= 0
 z_74: 166.727575 x74 - z <= 0
 z_75: 476.620425 x75 - z <= 0
 z_76: 312.116775 x76 - z <= 0
 z_77: 458.697925 x77 - z <= 0
 z_78: 462.726125 x78 - z <= 0
 z_79: 453.584875 x79 - z <= 0
 z_80: 461.98495 x80 - z <= 0
 z_81: 353.1189249999999 x81 - z <= 0
 z_82: 416.048125 x82 - z <= 0
 z_83: 411.311625 x83 - z <= 0
 z_84: 411.44285 x84 - z <= 0
 z_85: 411.09875 x85 - z <= 0
 z_86: 322.83475 x86 - z <= 0
 z_87: 470.2968500000001 x87 - z <= 0
 z_88: 478.243425 x88 - z <= 0
 z_89: 469.5876 x89 - z <= 0
 z_90: 477.352075 x90 - z <= 0
 z_91: 407.031925 x91 - z <= 0
 z_92: 443.98425 x92 - z <= 0
 z_93: 419.128425 x93 - z <= 0
 z_94: 473.471675 x94 - z <= 0
 z_95: 467.497975 x95 - z <= 0
 z_96: 463.8819 x96 - z <= 0
 z_97: 461.905425 x97 - z <= 0
 z_98: 455.8064250000001 x98 - z <= 0
 z_99: 290.27855 x99 - z <= 0
 z_100: 409.814425 x100 - z <= 0
 z_101: 455.74175 x101 - z <= 0
 z_102: 452.895 x102 - z <= 0
 z_103: 331.9275 x103 - z <= 0
 z_104: 425.480275 x104 - z <= 0
 z_105: 413.9629750000001 x105 - z <= 0
 z_106: 409.874 x106 - z <= 0
 z_107: 414.9941250000001 x107 - z <= 0
 z_108: 327.68995 x108 - z <= 0
 z_109: 476.006175 x109 - z <= 0
 z_110: 475.132175 x110 - z <= 0
 z_111: 469.4907250000001 x111 - z <= 0
 z_112: 470.372325 x112 - z <= 0
 z_113: 160.667875 x113 - z <= 0
 z_114: 458.2620250000001 x114 - z <= 0
 z_115: 454.9065499999999 x115 - z <= 0
 z_116: 400.348975 x116 - z <= 0
 z_117: 455.11465 x117 - z <= 0
 z_118: 472.19225 x118 - z <= 0
 z_119: 391.285825 x119 - z <= 0
 z_120: 251.53915 x120 - z <= 0
 z_121: 471.2102 x121 - z <= 0
 z_122: 458.304275 x122 - z <= 0
 z_123: 461.96815 x123 - z <= 0
 z_124: 376.9205000000001 x124 - z <= 0
 z_125: 226.63285 x125 - z <= 0
 z_126: 457.031475 x126 - z <= 0
 z_127: 455.90345 x127 - z <= 0
 z_128: 461.33485 x128 - z <= 0
 z_129: 463.0862 x129 - z <= 0
 z_130: 468.5403 x130 - z <= 0
 z_131: 479.99005 x131 - z <= 0
 z_132: 436.50945 x132 - z <= 0
 z_133: 416.031875 x133 - z <= 0
 z_134: 346.61745 x134 - z <= 0
 z_135: 425.0918 x135 - z <= 0
 z_136: 338.27895 x136 - z <= 0
 z_137: 81.7645 x137 - z <= 0
 z_138: 405.48355 x138 - z <= 0
 z_139: 417.01485 x139 - z <= 0
 z_140: 430.827375 x140 - z <= 0
 z_141: 249.4592 x141 - z <= 0
 z_142: 473.6105250000001 x142 - z <= 0
 z_143: 463.2900749999999 x143 - z <= 0
 z_144: 455.092275 x144 - z <= 0
 z_145: 377.516375 x145 - z <= 0
 z_146: 384.3077 x146 - z <= 0
 z_147: 304.022575 x147 - z <= 0
 z_148: 385.72655 x148 - z <= 0
 z_149: 407.031925 x149 - z <= 0
 z_150: 443.98425 x150 - z <= 0
 z_151: 419.128425 x151 - z <= 0
 z_152: 473.471675 x152 - z <= 0
 z_153: 467.497975 x153 - z <= 0
 z_154: 463.8819 x154 - z <= 0
 z_155: 461.905425 x155 - z <= 0
 z_156: 455.8064250000001 x156 - z <= 0
 z_157: 63.14735 x157 - z <= 0
 z_158: 453.7447 x158 - z <= 0
 z_159: 421.6726000000001 x159 - z <= 0
 z_160: 476.006175 x160 - z <= 0
 z_161: 471.3376 x161 - z <= 0
 z_162: 317.46895 x162 - z <= 0
 z_163: 464.978 x163 - z <= 0
 z_164: 461.96815 x164 - z <= 0
 z_165: 302.2939500000001 x165 - z <= 0
 z_166: 400.502425 x166 - z <= 0
 z_167: 477.464475 x167 - z <= 0
 z_168: 414.562525 x168 - z <= 0
 z_169: 412.929625 x169 - z <= 0
 z_170: 478.556325 x170 - z <= 0
 z_171: 339.426 x171 - z <= 0
Bounds
 x0 <= 1
 x1 <= 1
 x2 <= 1
 x3 <= 1
 x4 <= 1
 x5 <= 1
 x6 <= 1
 x7 <= 1
 x8 <= 1
 x9 <= 1
 x10 <= 1
 x11 <= 1
 x12 <= 1
 x13 <= 1
 x14 <= 1
 x15 <= 1
 x16 <= 1
 x17 <= 1
 x18 <= 1
 x19 <= 1
 x20 <= 1
 x21 <= 1
 x22 <= 1
 x23 <= 1
 x24 <= 1
 x25 <= 1
 x26 <= 1
 x27 <= 1
 x28 <= 1
 x29 <= 1
 x30 <= 1
 x31 <= 1
 x32 <= 1
 x33 <= 1
 x34 <= 1
 x35 <= 1
 x36 <= 1
 x37 <= 1
 x38 <= 1
 x39 <= 1
 x40 <= 1
 x41 <= 1
 x42 <= 1
 x43 <= 1
 x44 <= 1
 x45 <= 1
 x46 <= 1
 x47 <= 1
 x48 <= 1
 x49 <= 1
 x50 <= 1
 x51 <= 1
 x52 <= 1
 x53 <= 1
 x54 <= 1
 x55 <= 1
 x56 <= 1
 x57 <= 1
 x58 <= 1
 x59 <= 1
 x60 <= 1
 x61 <= 1
 x62 <= 1
 x63 <= 1
 x64 <= 1
 x65 <= 1
 x66 <= 1
 x67 <= 1
 x68 <= 1
 x69 <= 1
 x70 <= 1
 x71 <= 1
 x72 <= 1
 x73 <= 1
 x74 <= 1
 x75 <= 1
 x76 <= 1
 x77 <= 1
 x78 <= 1
 x79 <= 1
 x80 <= 1
 x81 <= 1
 x82 <= 1
 x83 <= 1
 x84 <= 1
 x85 <= 1
 x86 <= 1
 x87 <= 1
 x88 <= 1
 x89 <= 1
 x90 <= 1
 x91 <= 1
 x92 <= 1
 x93 <= 1
 x94 <= 1
 x95 <= 1
 x96 <= 1
 x97 <= 1
 x98 <= 1
 x99 <= 1
 x100 <= 1
 x101 <= 1
 x102 <= 1
 x103 <= 1
 x104 <= 1
 x105 <= 1
 x106 <= 1
 x107 <= 1
 x108 <= 1
 x109 <= 1
 x110 <= 1
 x111 <= 1
 x112 <= 1
 x113 <= 1
 x114 <= 1
 x115 <= 1
 x116 <= 1
 x117 <= 1
 x118 <= 1
 x119 <= 1
 x120 <= 1
 x121 <= 1
 x122 <= 1
 x123 <= 1
 x124 <= 1
 x125 <= 1
 x126 <= 1
 x127 <= 1
 x128 <= 1
 x129 <= 1
 x130 <= 1
 x131 <= 1
 x132 <= 1
 x133 <= 1
 x134 <= 1
 x135 <= 1
 x136 <= 1
 x137 <= 1
 x138 <= 1
 x139 <= 1
 x140 <= 1
 x141 <= 1
 x142 <= 1
 x143 <= 1
 x144 <= 1
 x145 <= 1
 x146 <= 1
 x147 <= 1
 x148 <= 1
 x149 <= 1
 x150 <= 1
 x151 <= 1
 x152 <= 1
 x153 <= 1
 x154 <= 1
 x155 <= 1
 x156 <= 1
 x157 <= 1
 x158 <= 1
 x159 <= 1
 x160 <= 1
 x161 <= 1
 x162 <= 1
 x163 <= 1
 x164 <= 1
 x165 <= 1
 x166 <= 1
 x167 <= 1
 x168 <= 1
 x169 <= 1
 x170 <= 1
 x171 <= 1
 z <= 10000
Generals
 x0 x1 x2 x3 x4 x5 x6 x7 x8 x9 x10 x11 x12 x13 x14 x15 x16 x17 x18 x19 x20
 x21 x22 x23 x24 x25 x26 x27 x28 x29 x30 x31 x32 x33 x34 x35 x36 x37 x38
 x39 x40 x41 x42 x43 x44 x45 x46 x47 x48 x49 x50 x51 x52 x53 x54 x55 x56
 x57 x58 x59 x60 x61 x62 x63 x64 x65 x66 x67 x68 x69 x70 x71 x72 x73 x74
 x75 x76 x77 x78 x79 x80 x81 x82 x83 x84 x85 x86 x87 x88 x89 x90 x91 x92
 x93 x94 x95 x96 x97 x98 x99 x100 x101 x102 x103 x104 x105 x106 x107 x108
 x109 x110 x111 x112 x113 x114 x115 x116 x117 x118 x119 x120 x121 x122 x123
 x124 x125 x126 x127 x128 x129 x130 x131 x132 x133 x134 x135 x136 x137 x138
 x139 x140 x141 x142 x143 x144 x145 x146 x147 x148 x149 x150 x151 x152 x153
 x154 x155 x156 x157 x158 x159 x160 x161 x162 x163 x164 x165 x166 x167 x168
 x169 x170 x171
End
